100 10
603 440
336 810
539 465
167 348
521 385
737 511
846 565
466 860
504 542
652 602
611 575
229 386
670 533
692 498
742 633
572 139
388 694
196 463
513 463
835 67
668 554
223 244
569 610
819 870
656 554
590 383
383 354
499 337
702 464
614 338
868 653
464 735
609 951
898 452
544 620
769 743
260 409
322 363
620 531
780 185
585 788
855 463
64 831
127 330
701 221
741 377
681 366
548 76
432 860
807 637
621 730
717 573
891 314
728 598
623 598
326 410
644 413
73 866
309 507
694 392
726 482
666 777
574 219
669 602
630 129
517 912
946 537
570 446
555 101
549 424
746 653
212 212
650 590
673 716
620 258
645 592
429 763
643 431
719 457
519 721
679 837
272 698
447 326
767 554
288 255
495 768
204 221
348 481
534 698
478 434
487 658
688 630
653 565
385 697
506 343
447 422
459 752
630 531
440 502
330 894
